qbf_easy_train/easy_4116_UNSAT.qdimacs
p cnf 30 79
a 24 17 28 0
e 1 2 3 4 5 6 7 8 9 10 11 12 13 14 15 16 18 19 20 21 22 23 25 26 27 29 30 0
-2 -3 -4 0
2 3 -4 0
-2 3 4 0
2 -3 4 0
-5 -1 0
-5 4 0
1 -4 5 0
4 7 0
-4 7 0
-6 7 -8 0
6 -7 -8 0
-6 -7 8 0
6 7 8 0
5 8 -9 0
-5 -8 -9 0
5 -8 9 0
-5 8 9 0
-9 -10 -11 0
9 10 -11 0
-9 10 11 0
9 -10 11 0
12 2 0
12 7 0
-2 -7 -12 0
-13 -8 0
-13 -12 0
8 12 13 0
11 13 -14 0
-11 -13 -14 0
11 -13 14 0
-11 13 14 0
16 15 0
16 2 0
-15 -2 -16 0
17 -16 0
17 15 0
16 -15 -17 0
18 14 0
18 -17 0
-14 17 -18 0
7 -15 -19 0
-7 15 -19 0
7 15 19 0
-7 -15 19 0
-21 19 0
-21 -20 0
-19 20 21 0
22 18 0
22 21 0
-18 -21 -22 0
23 8 0
23 -3 0
-8 3 -23 0
24 -4 0
24 12 0
4 -12 -24 0
25 5 0
25 -24 0
-5 24 -25 0
27 -26 0
27 15 0
26 -15 -27 0
-28 25 0
-28 27 0
-25 -27 28 0
29 -23 0
29 28 0
23 -28 -29 0
30 22 0
30 29 0
-22 -29 -30 0
-12 19 0
15 -4 10 30 19 9 -24 0
4 -13 27 -1 -25 -23 7 0
12 21 -27 -24 14 0
21 -24 0
20 -4 1 6 -13 3 -12 -14 0
14 4 6 -30 -22 15 0
30 0
