sat_easy_train/easy_4116_UNSAT.dimacs
p cnf 114 376
-1 2 -3 0
1 -2 -3 0
-1 -2 3 0
1 2 3 0
-5 -3 0
-5 -4 0
3 4 5 0
-8 6 0
-8 -7 0
-6 7 8 0
5 -8 -9 0
-5 8 -9 0
5 8 9 0
-5 -8 9 0
-10 -4 0
-10 -2 0
4 2 10 0
-11 10 0
-11 -4 0
-10 4 11 0
9 11 -12 0
-9 -11 -12 0
9 -11 12 0
-9 11 12 0
13 14 0
-13 14 0
-15 -13 0
-15 14 0
13 -14 15 0
-16 -12 0
-16 15 0
12 -15 16 0
18 17 0
18 17 0
-17 -18 0
4 -19 0
-4 -19 0
-20 -18 0
-20 -19 0
18 19 20 0
21 2 0
21 -7 0
-2 7 -21 0
-22 21 0
-22 -5 0
-21 5 22 0
23 -22 0
23 -18 0
22 18 -23 0
-25 -24 0
-25 1 0
24 -1 25 0
-26 -25 0
-26 -10 0
25 10 26 0
-23 -26 -27 0
23 26 -27 0
-23 26 27 0
23 -26 27 0
28 20 0
28 -27 0
-20 27 -28 0
-29 16 0
-29 28 0
-16 -28 29 0
31 -30 0
31 -10 0
30 10 -31 0
32 1 0
32 31 0
-1 -31 -32 0
22 -32 -33 0
-22 32 -33 0
22 32 33 0
-22 -32 33 0
-34 -29 0
-34 33 0
29 -33 34 0
35 -8 0
35 -4 0
8 4 -35 0
4 35 -36 0
-4 -35 -36 0
4 -35 36 0
-4 35 36 0
39 -38 0
39 -37 0
38 37 -39 0
-40 14 0
-40 -39 0
-14 39 40 0
41 -37 0
41 -40 0
37 40 -41 0
42 36 0
42 -41 0
-36 41 -42 0
-34 -42 -43 0
34 42 -43 0
-34 42 43 0
34 -42 43 0
-44 -7 0
-44 21 0
7 -21 44 0
-44 -24 -45 0
44 24 -45 0
-44 24 45 0
44 -24 45 0
10 45 -46 0
-10 -45 -46 0
10 -45 46 0
-10 45 46 0
46 -7 -47 0
-46 7 -47 0
46 7 47 0
-46 -7 47 0
36 -47 -48 0
-36 47 -48 0
36 47 48 0
-36 -47 48 0
-49 -18 0
-49 6 0
18 -6 49 0
19 -21 -50 0
-19 21 -50 0
19 21 50 0
-19 -21 50 0
51 35 0
51 -2 0
-35 2 -51 0
54 -52 0
54 53 0
52 -53 -54 0
-55 -54 0
-55 1 0
54 -1 55 0
-56 -55 0
-56 -18 0
55 18 56 0
51 -56 -57 0
-51 56 -57 0
51 56 57 0
-51 -56 57 0
-58 53 0
-58 13 0
-53 -13 58 0
-59 58 0
-59 21 0
-58 -21 59 0
-57 59 -60 0
57 -59 -60 0
-57 -59 60 0
57 59 60 0
-61 50 0
-61 -60 0
-50 60 61 0
62 54 0
62 4 0
-54 -4 -62 0
63 -7 0
63 -51 0
7 51 -63 0
62 63 -64 0
-62 -63 -64 0
62 -63 64 0
-62 63 64 0
61 -64 -65 0
-61 64 -65 0
61 64 65 0
-61 -64 65 0
-66 -58 0
-66 -25 0
58 25 66 0
65 -66 -67 0
-65 66 -67 0
65 66 67 0
-65 -66 67 0
-68 -49 0
-68 67 0
49 -67 68 0
48 68 -69 0
-48 -68 -69 0
48 -68 69 0
-48 68 69 0
-70 37 0
-70 -10 0
-37 10 70 0
72 -18 0
72 35 0
18 -35 -72 0
-73 72 0
-73 55 0
-72 -55 73 0
-74 73 0
-74 -4 0
-73 4 74 0
75 71 0
75 -74 0
-71 74 -75 0
76 70 0
76 75 0
-70 -75 -76 0
69 76 -77 0
-69 -76 -77 0
69 -76 77 0
-69 76 77 0
55 -54 -78 0
-55 54 -78 0
55 54 78 0
-55 -54 78 0
-79 -78 0
-79 52 0
78 -52 79 0
80 51 0
80 -79 0
-51 79 -80 0
47 6 -81 0
-47 -6 -81 0
47 -6 81 0
-47 6 81 0
-82 -81 0
-82 35 0
81 -35 82 0
-82 -4 -83 0
82 4 -83 0
-82 4 83 0
82 -4 83 0
84 -14 0
84 10 0
14 -10 -84 0
-44 14 -85 0
44 -14 -85 0
-44 -14 85 0
44 14 85 0
85 -59 -86 0
-85 59 -86 0
85 59 86 0
-85 -59 86 0
87 -84 0
87 -86 0
84 86 -87 0
88 83 0
88 -87 0
-83 87 -88 0
90 78 0
90 89 0
-78 -89 -90 0
-88 -90 -91 0
88 90 -91 0
-88 90 91 0
88 -90 91 0
-41 89 -92 0
41 -89 -92 0
-41 -89 92 0
41 89 92 0
93 91 0
93 -92 0
-91 92 -93 0
94 -55 -95 0
-94 55 -95 0
94 55 95 0
-94 -55 95 0
-96 7 0
-96 -3 0
-7 3 96 0
-95 -96 -97 0
95 96 -97 0
-95 96 97 0
95 -96 97 0
98 -56 0
98 -14 0
56 14 -98 0
-99 -55 0
-99 98 0
55 -98 99 0
100 99 0
100 -81 0
-99 81 -100 0
-101 -13 0
-101 -46 0
13 46 101 0
102 100 0
102 101 0
-100 -101 -102 0
-103 3 0
-103 35 0
-3 -35 103 0
102 -103 -104 0
-102 103 -104 0
102 103 104 0
-102 -103 104 0
-105 -97 0
-105 104 0
97 -104 105 0
-93 -105 -106 0
93 105 -106 0
-93 105 106 0
93 -105 106 0
-80 106 -107 0
80 -106 -107 0
-80 -106 107 0
80 106 107 0
1 -53 -108 0
-1 53 -108 0
1 53 108 0
-1 -53 108 0
108 -10 -109 0
-108 10 -109 0
108 10 109 0
-108 -10 109 0
-110 -6 0
-110 24 0
6 -24 110 0
-111 109 0
-111 -110 0
-109 110 111 0
-112 -107 0
-112 111 0
107 -111 112 0
-113 77 0
-113 112 0
-77 -112 113 0
43 -113 -114 0
-43 113 -114 0
43 113 114 0
-43 -113 114 0
47 -28 3 0
92 -25 -26 -19 2 0
96 -54 0
-50 4 0
41 94 -20 0
64 -59 -60 -28 7 0
-14 -87 -3 0
-52 50 112 -63 0
-67 -109 91 20 58 0
97 14 80 0
62 -112 22 -42 0
30 37 -44 0
75 54 52 -20 94 -31 0
-56 -112 0
51 78 23 14 -75 -77 0
-50 79 36 0
-39 7 19 28 37 -25 0
-32 -13 0
6 -66 102 -19 -99 -113 0
-48 69 0
-77 -11 76 0
52 -70 -108 0
-48 13 -28 76 105 0
-83 -53 -2 -45 3 0
33 30 35 77 0
-68 -57 -82 -16 0
-79 -68 101 -16 0
-52 58 0
104 -95 107 -65 -18 66 0
-33 -36 -4 -110 -63 0
3 28 -22 0
26 -63 36 -23 0
-17 -100 0
-69 -78 0
-52 -86 43 0
-54 -20 -77 0
34 -92 -59 -101 0
83 -18 52 0
-58 67 -14 111 -102 0
-18 -35 31 7 13 0
55 -43 -56 0
-48 50 87 -52 -104 0
-24 83 16 0
-72 35 -4 0
-90 -88 -72 0
-44 -13 24 -103 -104 0
96 80 0
16 -94 -68 -17 0
-69 -19 0
114 0
